2000, -294970296
148, 4002001
554, 4002002
600, 4002003
629, 4002004
443, 4002005
405, 4002006
773, 4002007
332, 4002008
354, 4002009
785, 4002010
519, 4002011
515, 4002012
765, 4002013
486, 4002014
167, 4002015
190, 4002016
488, 4002017
672, 4002018
502, 4002019
825, 4002020
924, 4002021
165, 4002022
819, 4002023
249, 4002024
759, 4002025
597, 4002026
952, 4002027
473, 4002028
655, 4002029
472, 4002030
385, 4002031
626, 4002032
184, 4002033
459, 4002034
132, 4002035
401, 4002036
160, 4002037
739, 4002038
817, 4002039
636, 4002040
970, 4002041
87, 4002042
330, 4002043
429, 4002044
647, 4002045
441, 4002046
44, 4002047
197, 4002048
662, 4002049
869, 4002050
972, 4002051
297, 4002052
652, 4002053
297, 4002054
275, 4002055
401, 4002056
772, 4002057
555, 4002058
450, 4002059
883, 4002060
761, 4002061
350, 4002062
822, 4002063
572, 4002064
598, 4002065
556, 4002066
788, 4002067
278, 4002068
845, 4002069
748, 4002070
285, 4002071
202, 4002072
644, 4002073
77, 4002074
675, 4002075
456, 4002076
384, 4002077
505, 4002078
706, 4002079
466, 4002080
134, 4002081
875, 4002082
727, 4002083
140, 4002084
532, 4002085
784, 4002086
612, 4002087
494, 4002088
197, 4002089
73, 4002090
529, 4002091
767, 4002092
289, 4002093
95, 4002094
892, 4002095
19, 4002096
136, 4002097
669, 4002098
82, 4002099
70, 4002100
704, 4002101
458, 4002102
947, 4002103
279, 4002104
642, 4002105
44, 4002106
841, 4002107
845, 4002108
753, 4002109
733, 4002110
856, 4002111
749, 4002112
433, 4002113
400, 4002114
751, 4002115
449, 4002116
931, 4002117
796, 4002118
214, 4002119
121, 4002120
560, 4002121
856, 4002122
630, 4002123
590, 4002124
265, 4002125
485, 4002126
459, 4002127
473, 4002128
741, 4002129
231, 4002130
124, 4002131
192, 4002132
139, 4002133
891, 4002134
561, 4002135
633, 4002136
371, 4002137
18, 4002138
140, 4002139
413, 4002140
816, 4002141
700, 4002142
872, 4002143
766, 4002144
800, 4002145
646, 4002146
365, 4002147
904, 4002148
106, 4002149
84, 4002150
345, 4002151
99, 4002152
182, 4002153
686, 4002154
431, 4002155
47, 4002156
296, 4002157
79, 4002158
836, 4002159
670, 4002160
21, 4002161
9, 4002162
60, 4002163
517, 4002164
628, 4002165
673, 4002166
857, 4002167
42, 4002168
342, 4002169
529, 4002170
948, 4002171
359, 4002172
774, 4002173
296, 4002174
497, 4002175
645, 4002176
938, 4002177
723, 4002178
575, 4002179
18, 4002180
839, 4002181
504, 4002182
341, 4002183
171, 4002184
944, 4002185
45, 4002186
110, 4002187
745, 4002188
470, 4002189
413, 4002190
877, 4002191
544, 4002192
865, 4002193
394, 4002194
873, 4002195
203, 4002196
589, 4002197
59, 4002198
698, 4002199
913, 4002200
45, 4002201
967, 4002202
769, 4002203
939, 4002204
260, 4002205
184, 4002206
156, 4002207
402, 4002208
606, 4002209
401, 4002210
287, 4002211
997, 4002212
51, 4002213
800, 4002214
179, 4002215
89, 4002216
724, 4002217
764, 4002218
98, 4002219
926, 4002220
812, 4002221
511, 4002222
752, 4002223
96, 4002224
431, 4002225
548, 4002226
107, 4002227
75, 4002228
973, 4002229
825, 4002230
588, 4002231
62, 4002232
136, 4002233
110, 4002234
748, 4002235
105, 4002236
193, 4002237
900, 4002238
415, 4002239
502, 4002240
846, 4002241
407, 4002242
123, 4002243
650, 4002244
911, 4002245
188, 4002246
193, 4002247
789, 4002248
292, 4002249
523, 4002250
163, 4002251
21, 4002252
352, 4002253
901, 4002254
212, 4002255
239, 4002256
888, 4002257
214, 4002258
35, 4002259
390, 4002260
948, 4002261
364, 4002262
15, 4002263
641, 4002264
77, 4002265
661, 4002266
499, 4002267
113, 4002268
773, 4002269
549, 4002270
475, 4002271
975, 4002272
745, 4002273
53, 4002274
109, 4002275
426, 4002276
618, 4002277
428, 4002278
769, 4002279
831, 4002280
455, 4002281
738, 4002282
937, 4002283
198, 4002284
411, 4002285
303, 4002286
945, 4002287
724, 4002288
877, 4002289
632, 4002290
959, 4002291
275, 4002292
83, 4002293
450, 4002294
835, 4002295
850, 4002296
565, 4002297
949, 4002298
968, 4002299
987, 4002300
456, 4002301
481, 4002302
217, 4002303
991, 4002304
896, 4002305
955, 4002306
20, 4002307
956, 4002308
43, 4002309
233, 4002310
586, 4002311
567, 4002312
885, 4002313
769, 4002314
524, 4002315
802, 4002316
198, 4002317
230, 4002318
207, 4002319
926, 4002320
237, 4002321
994, 4002322
505, 4002323
25, 4002324
440, 4002325
165, 4002326
681, 4002327
745, 4002328
49, 4002329
700, 4002330
562, 4002331
487, 4002332
658, 4002333
58, 4002334
399, 4002335
557, 4002336
873, 4002337
130, 4002338
592, 4002339
456, 4002340
284, 4002341
993, 4002342
132, 4002343
53, 4002344
150, 4002345
96, 4002346
317, 4002347
15, 4002348
856, 4002349
440, 4002350
758, 4002351
895, 4002352
832, 4002353
773, 4002354
151, 4002355
370, 4002356
645, 4002357
779, 4002358
927, 4002359
15, 4002360
159, 4002361
451, 4002362
593, 4002363
214, 4002364
427, 4002365
854, 4002366
943, 4002367
617, 4002368
277, 4002369
1, 4002370
697, 4002371
742, 4002372
885, 4002373
238, 4002374
479, 4002375
634, 4002376
602, 4002377
944, 4002378
962, 4002379
71, 4002380
297, 4002381
663, 4002382
375, 4002383
310, 4002384
398, 4002385
591, 4002386
643, 4002387
589, 4002388
96, 4002389
262, 4002390
223, 4002391
666, 4002392
169, 4002393
555, 4002394
645, 4002395
46, 4002396
804, 4002397
599, 4002398
304, 4002399
467, 4002400
37, 4002401
263, 4002402
320, 4002403
974, 4002404
804, 4002405
479, 4002406
859, 4002407
381, 4002408
585, 4002409
687, 4002410
5, 4002411
256, 4002412
721, 4002413
634, 4002414
440, 4002415
59, 4002416
7, 4002417
602, 4002418
644, 4002419
11, 4002420
267, 4002421
637, 4002422
280, 4002423
684, 4002424
950, 4002425
466, 4002426
22, 4002427
721, 4002428
723, 4002429
908, 4002430
874, 4002431
139, 4002432
976, 4002433
13, 4002434
611, 4002435
680, 4002436
522, 4002437
380, 4002438
432, 4002439
613, 4002440
556, 4002441
247, 4002442
84, 4002443
780, 4002444
920, 4002445
289, 4002446
859, 4002447
615, 4002448
91, 4002449
957, 4002450
434, 4002451
898, 4002452
445, 4002453
256, 4002454
338, 4002455
484, 4002456
254, 4002457
170, 4002458
756, 4002459
742, 4002460
314, 4002461
989, 4002462
589, 4002463
290, 4002464
885, 4002465
844, 4002466
748, 4002467
28, 4002468
183, 4002469
245, 4002470
631, 4002471
404, 4002472
113, 4002473
319, 4002474
457, 4002475
66, 4002476
86, 4002477
276, 4002478
302, 4002479
192, 4002480
210, 4002481
175, 4002482
277, 4002483
771, 4002484
38, 4002485
743, 4002486
317, 4002487
394, 4002488
385, 4002489
698, 4002490
879, 4002491
893, 4002492
456, 4002493
962, 4002494
98, 4002495
54, 4002496
214, 4002497
147, 4002498
105, 4002499
435, 4002500
820, 4002501
306, 4002502
638, 4002503
569, 4002504
890, 4002505
759, 4002506
259, 4002507
682, 4002508
771, 4002509
323, 4002510
3, 4002511
600, 4002512
773, 4002513
90, 4002514
701, 4002515
527, 4002516
958, 4002517
90, 4002518
161, 4002519
638, 4002520
768, 4002521
970, 4002522
144, 4002523
918, 4002524
13, 4002525
627, 4002526
247, 4002527
465, 4002528
834, 4002529
330, 4002530
884, 4002531
547, 4002532
728, 4002533
627, 4002534
79, 4002535
108, 4002536
110, 4002537
415, 4002538
554, 4002539
220, 4002540
632, 4002541
983, 4002542
233, 4002543
573, 4002544
923, 4002545
278, 4002546
691, 4002547
581, 4002548
45, 4002549
370, 4002550
574, 4002551
48, 4002552
497, 4002553
546, 4002554
934, 4002555
449, 4002556
217, 4002557
17, 4002558
374, 4002559
73, 4002560
738, 4002561
945, 4002562
220, 4002563
142, 4002564
811, 4002565
33, 4002566
913, 4002567
318, 4002568
709, 4002569
503, 4002570
774, 4002571
400, 4002572
267, 4002573
414, 4002574
160, 4002575
449, 4002576
971, 4002577
641, 4002578
381, 4002579
52, 4002580
980, 4002581
709, 4002582
428, 4002583
113, 4002584
565, 4002585
346, 4002586
104, 4002587
382, 4002588
20, 4002589
338, 4002590
317, 4002591
600, 4002592
276, 4002593
136, 4002594
337, 4002595
523, 4002596
485, 4002597
778, 4002598
652, 4002599
53, 4002600
311, 4002601
560, 4002602
648, 4002603
311, 4002604
326, 4002605
306, 4002606
617, 4002607
267, 4002608
335, 4002609
964, 4002610
485, 4002611
494, 4002612
529, 4002613
885, 4002614
380, 4002615
511, 4002616
53, 4002617
115, 4002618
664, 4002619
814, 4002620
414, 4002621
648, 4002622
942, 4002623
789, 4002624
497, 4002625
240, 4002626
667, 4002627
890, 4002628
438, 4002629
304, 4002630
728, 4002631
666, 4002632
876, 4002633
640, 4002634
406, 4002635
559, 4002636
280, 4002637
889, 4002638
666, 4002639
435, 4002640
270, 4002641
264, 4002642
217, 4002643
306, 4002644
526, 4002645
360, 4002646
45, 4002647
452, 4002648
824, 4002649
19, 4002650
197, 4002651
295, 4002652
200, 4002653
730, 4002654
512, 4002655
712, 4002656
154, 4002657
999, 4002658
643, 4002659
27, 4002660
822, 4002661
434, 4002662
533, 4002663
446, 4002664
852, 4002665
801, 4002666
186, 4002667
818, 4002668
57, 4002669
277, 4002670
196, 4002671
841, 4002672
96, 4002673
923, 4002674
787, 4002675
824, 4002676
810, 4002677
408, 4002678
550, 4002679
974, 4002680
190, 4002681
756, 4002682
16, 4002683
947, 4002684
424, 4002685
424, 4002686
795, 4002687
914, 4002688
454, 4002689
103, 4002690
287, 4002691
86, 4002692
133, 4002693
896, 4002694
316, 4002695
728, 4002696
944, 4002697
121, 4002698
875, 4002699
263, 4002700
529, 4002701
709, 4002702
832, 4002703
454, 4002704
54, 4002705
815, 4002706
146, 4002707
321, 4002708
564, 4002709
436, 4002710
185, 4002711
351, 4002712
487, 4002713
45, 4002714
111, 4002715
833, 4002716
440, 4002717
794, 4002718
967, 4002719
889, 4002720
356, 4002721
519, 4002722
73, 4002723
748, 4002724
876, 4002725
106, 4002726
395, 4002727
216, 4002728
903, 4002729
306, 4002730
224, 4002731
238, 4002732
80, 4002733
713, 4002734
237, 4002735
904, 4002736
998, 4002737
667, 4002738
62, 4002739
563, 4002740
86, 4002741
116, 4002742
717, 4002743
734, 4002744
859, 4002745
782, 4002746
723, 4002747
361, 4002748
463, 4002749
688, 4002750
837, 4002751
998, 4002752
502, 4002753
151, 4002754
855, 4002755
587, 4002756
617, 4002757
456, 4002758
884, 4002759
510, 4002760
600, 4002761
291, 4002762
171, 4002763
167, 4002764
215, 4002765
121, 4002766
739, 4002767
152, 4002768
489, 4002769
7, 4002770
344, 4002771
344, 4002772
56, 4002773
593, 4002774
274, 4002775
971, 4002776
306, 4002777
303, 4002778
877, 4002779
723, 4002780
748, 4002781
210, 4002782
571, 4002783
826, 4002784
163, 4002785
111, 4002786
795, 4002787
709, 4002788
534, 4002789
330, 4002790
373, 4002791
898, 4002792
461, 4002793
612, 4002794
235, 4002795
506, 4002796
300, 4002797
166, 4002798
34, 4002799
767, 4002800
312, 4002801
595, 4002802
382, 4002803
510, 4002804
72, 4002805
137, 4002806
137, 4002807
22, 4002808
757, 4002809
8, 4002810
419, 4002811
415, 4002812
738, 4002813
273, 4002814
99, 4002815
212, 4002816
867, 4002817
791, 4002818
764, 4002819
233, 4002820
586, 4002821
513, 4002822
184, 4002823
876, 4002824
5, 4002825
837, 4002826
609, 4002827
311, 4002828
57, 4002829
910, 4002830
874, 4002831
948, 4002832
978, 4002833
7, 4002834
202, 4002835
671, 4002836
399, 4002837
534, 4002838
792, 4002839
120, 4002840
826, 4002841
857, 4002842
383, 4002843
614, 4002844
646, 4002845
891, 4002846
363, 4002847
548, 4002848
119, 4002849
663, 4002850
498, 4002851
454, 4002852
181, 4002853
379, 4002854
876, 4002855
5, 4002856
344, 4002857
871, 4002858
731, 4002859
478, 4002860
716, 4002861
875, 4002862
187, 4002863
335, 4002864
831, 4002865
483, 4002866
882, 4002867
402, 4002868
382, 4002869
206, 4002870
904, 4002871
783, 4002872
419, 4002873
58, 4002874
200, 4002875
222, 4002876
785, 4002877
802, 4002878
549, 4002879
522, 4002880
845, 4002881
880, 4002882
773, 4002883
510, 4002884
343, 4002885
482, 4002886
321, 4002887
843, 4002888
774, 4002889
744, 4002890
498, 4002891
136, 4002892
391, 4002893
348, 4002894
109, 4002895
560, 4002896
431, 4002897
392, 4002898
432, 4002899
423, 4002900
363, 4002901
723, 4002902
490, 4002903
677, 4002904
719, 4002905
204, 4002906
886, 4002907
961, 4002908
739, 4002909
340, 4002910
512, 4002911
590, 4002912
239, 4002913
488, 4002914
494, 4002915
65, 4002916
32, 4002917
157, 4002918
95, 4002919
800, 4002920
872, 4002921
210, 4002922
367, 4002923
708, 4002924
409, 4002925
368, 4002926
113, 4002927
175, 4002928
962, 4002929
549, 4002930
683, 4002931
334, 4002932
224, 4002933
564, 4002934
469, 4002935
40, 4002936
909, 4002937
670, 4002938
785, 4002939
589, 4002940
453, 4002941
883, 4002942
68, 4002943
656, 4002944
435, 4002945
969, 4002946
579, 4002947
93, 4002948
248, 4002949
804, 4002950
671, 4002951
482, 4002952
76, 4002953
595, 4002954
849, 4002955
73, 4002956
506, 4002957
89, 4002958
917, 4002959
436, 4002960
312, 4002961
801, 4002962
691, 4002963
616, 4002964
828, 4002965
985, 4002966
905, 4002967
722, 4002968
936, 4002969
279, 4002970
578, 4002971
988, 4002972
878, 4002973
550, 4002974
417, 4002975
16, 4002976
883, 4002977
866, 4002978
638, 4002979
395, 4002980
824, 4002981
799, 4002982
279, 4002983
779, 4002984
260, 4002985
629, 4002986
920, 4002987
217, 4002988
931, 4002989
766, 4002990
499, 4002991
648, 4002992
953, 4002993
286, 4002994
400, 4002995
539, 4002996
735, 4002997
962, 4002998
142, 4002999
786, 4003000
157, 4003001
233, 4003002
143, 4003003
389, 4003004
645, 4003005
470, 4003006
199, 4003007
103, 4003008
86, 4003009
555, 4003010
325, 4003011
556, 4003012
350, 4003013
358, 4003014
689, 4003015
922, 4003016
670, 4003017
119, 4003018
748, 4003019
211, 4003020
922, 4003021
592, 4003022
474, 4003023
177, 4003024
438, 4003025
131, 4003026
682, 4003027
345, 4003028
473, 4003029
47, 4003030
220, 4003031
664, 4003032
285, 4003033
947, 4003034
98, 4003035
984, 4003036
484, 4003037
305, 4003038
687, 4003039
659, 4003040
556, 4003041
52, 4003042
842, 4003043
38, 4003044
852, 4003045
329, 4003046
835, 4003047
799, 4003048
252, 4003049
601, 4003050
685, 4003051
279, 4003052
936, 4003053
677, 4003054
930, 4003055
625, 4003056
101, 4003057
184, 4003058
362, 4003059
568, 4003060
426, 4003061
616, 4003062
75, 4003063
700, 4003064
400, 4003065
805, 4003066
241, 4003067
37, 4003068
714, 4003069
400, 4003070
423, 4003071
14, 4003072
381, 4003073
493, 4003074
820, 4003075
211, 4003076
481, 4003077
713, 4003078
479, 4003079
603, 4003080
893, 4003081
547, 4003082
411, 4003083
422, 4003084
542, 4003085
246, 4003086
283, 4003087
663, 4003088
496, 4003089
245, 4003090
430, 4003091
154, 4003092
875, 4003093
606, 4003094
836, 4003095
663, 4003096
175, 4003097
120, 4003098
454, 4003099
613, 4003100
543, 4003101
780, 4003102
537, 4003103
431, 4003104
946, 4003105
230, 4003106
291, 4003107
914, 4003108
365, 4003109
204, 4003110
308, 4003111
500, 4003112
921, 4003113
78, 4003114
102, 4003115
542, 4003116
283, 4003117
204, 4003118
693, 4003119
379, 4003120
918, 4003121
267, 4003122
64, 4003123
958, 4003124
114, 4003125
48, 4003126
605, 4003127
927, 4003128
417, 4003129
58, 4003130
672, 4003131
566, 4003132
740, 4003133
115, 4003134
612, 4003135
798, 4003136
377, 4003137
432, 4003138
751, 4003139
827, 4003140
536, 4003141
20, 4003142
362, 4003143
516, 4003144
993, 4003145
160, 4003146
455, 4003147
897, 4003148
991, 4003149
94, 4003150
337, 4003151
237, 4003152
255, 4003153
168, 4003154
142, 4003155
924, 4003156
729, 4003157
517, 4003158
528, 4003159
406, 4003160
5, 4003161
540, 4003162
71, 4003163
746, 4003164
343, 4003165
199, 4003166
416, 4003167
211, 4003168
500, 4003169
57, 4003170
953, 4003171
342, 4003172
898, 4003173
672, 4003174
778, 4003175
729, 4003176
299, 4003177
387, 4003178
268, 4003179
453, 4003180
770, 4003181
548, 4003182
349, 4003183
949, 4003184
43, 4003185
750, 4003186
146, 4003187
468, 4003188
367, 4003189
847, 4003190
988, 4003191
554, 4003192
669, 4003193
879, 4003194
107, 4003195
807, 4003196
274, 4003197
495, 4003198
653, 4003199
838, 4003200
345, 4003201
579, 4003202
495, 4003203
163, 4003204
275, 4003205
672, 4003206
626, 4003207
277, 4003208
280, 4003209
645, 4003210
55, 4003211
460, 4003212
244, 4003213
718, 4003214
275, 4003215
315, 4003216
490, 4003217
92, 4003218
315, 4003219
183, 4003220
4, 4003221
101, 4003222
312, 4003223
885, 4003224
152, 4003225
202, 4003226
172, 4003227
591, 4003228
163, 4003229
731, 4003230
867, 4003231
920, 4003232
634, 4003233
77, 4003234
443, 4003235
763, 4003236
964, 4003237
372, 4003238
835, 4003239
727, 4003240
65, 4003241
832, 4003242
447, 4003243
37, 4003244
13, 4003245
252, 4003246
890, 4003247
919, 4003248
61, 4003249
290, 4003250
201, 4003251
395, 4003252
840, 4003253
167, 4003254
94, 4003255
390, 4003256
998, 4003257
621, 4003258
219, 4003259
761, 4003260
732, 4003261
219, 4003262
610, 4003263
271, 4003264
110, 4003265
894, 4003266
387, 4003267
340, 4003268
899, 4003269
604, 4003270
854, 4003271
903, 4003272
357, 4003273
643, 4003274
220, 4003275
160, 4003276
373, 4003277
550, 4003278
361, 4003279
386, 4003280
26, 4003281
327, 4003282
709, 4003283
994, 4003284
627, 4003285
150, 4003286
14, 4003287
229, 4003288
8, 4003289
832, 4003290
534, 4003291
413, 4003292
612, 4003293
88, 4003294
635, 4003295
645, 4003296
253, 4003297
505, 4003298
241, 4003299
216, 4003300
90, 4003301
584, 4003302
746, 4003303
141, 4003304
643, 4003305
406, 4003306
934, 4003307
429, 4003308
949, 4003309
860, 4003310
306, 4003311
955, 4003312
411, 4003313
990, 4003314
581, 4003315
162, 4003316
909, 4003317
432, 4003318
390, 4003319
386, 4003320
548, 4003321
755, 4003322
191, 4003323
779, 4003324
731, 4003325
16, 4003326
532, 4003327
464, 4003328
87, 4003329
43, 4003330
180, 4003331
965, 4003332
552, 4003333
489, 4003334
30, 4003335
937, 4003336
261, 4003337
402, 4003338
189, 4003339
932, 4003340
939, 4003341
119, 4003342
533, 4003343
617, 4003344
479, 4003345
204, 4003346
507, 4003347
381, 4003348
766, 4003349
62, 4003350
775, 4003351
774, 4003352
724, 4003353
958, 4003354
349, 4003355
68, 4003356
369, 4003357
236, 4003358
343, 4003359
362, 4003360
605, 4003361
293, 4003362
204, 4003363
877, 4003364
917, 4003365
477, 4003366
252, 4003367
916, 4003368
130, 4003369
277, 4003370
978, 4003371
190, 4003372
521, 4003373
165, 4003374
104, 4003375
462, 4003376
205, 4003377
242, 4003378
77, 4003379
338, 4003380
175, 4003381
881, 4003382
34, 4003383
119, 4003384
918, 4003385
178, 4003386
880, 4003387
638, 4003388
423, 4003389
261, 4003390
75, 4003391
90, 4003392
269, 4003393
399, 4003394
961, 4003395
319, 4003396
897, 4003397
446, 4003398
755, 4003399
524, 4003400
51, 4003401
376, 4003402
115, 4003403
785, 4003404
326, 4003405
408, 4003406
372, 4003407
41, 4003408
239, 4003409
73, 4003410
829, 4003411
753, 4003412
982, 4003413
320, 4003414
869, 4003415
191, 4003416
844, 4003417
805, 4003418
144, 4003419
371, 4003420
875, 4003421
594, 4003422
544, 4003423
176, 4003424
857, 4003425
730, 4003426
780, 4003427
19, 4003428
420, 4003429
875, 4003430
908, 4003431
11, 4003432
798, 4003433
148, 4003434
882, 4003435
191, 4003436
962, 4003437
863, 4003438
514, 4003439
483, 4003440
789, 4003441
143, 4003442
970, 4003443
114, 4003444
389, 4003445
523, 4003446
210, 4003447
860, 4003448
149, 4003449
49, 4003450
437, 4003451
666, 4003452
591, 4003453
635, 4003454
310, 4003455
660, 4003456
727, 4003457
301, 4003458
667, 4003459
666, 4003460
214, 4003461
996, 4003462
165, 4003463
943, 4003464
948, 4003465
536, 4003466
165, 4003467
871, 4003468
725, 4003469
50, 4003470
976, 4003471
682, 4003472
869, 4003473
206, 4003474
596, 4003475
677, 4003476
451, 4003477
914, 4003478
24, 4003479
560, 4003480
49, 4003481
540, 4003482
295, 4003483
282, 4003484
665, 4003485
976, 4003486
693, 4003487
631, 4003488
545, 4003489
983, 4003490
520, 4003491
602, 4003492
416, 4003493
985, 4003494
471, 4003495
826, 4003496
966, 4003497
859, 4003498
278, 4003499
985, 4003500
239, 4003501
801, 4003502
952, 4003503
351, 4003504
960, 4003505
981, 4003506
299, 4003507
731, 4003508
792, 4003509
141, 4003510
527, 4003511
410, 4003512
408, 4003513
560, 4003514
414, 4003515
869, 4003516
635, 4003517
721, 4003518
589, 4003519
487, 4003520
430, 4003521
290, 4003522
593, 4003523
548, 4003524
736, 4003525
546, 4003526
739, 4003527
979, 4003528
331, 4003529
551, 4003530
36, 4003531
317, 4003532
937, 4003533
980, 4003534
705, 4003535
979, 4003536
431, 4003537
452, 4003538
95, 4003539
714, 4003540
468, 4003541
116, 4003542
471, 4003543
906, 4003544
842, 4003545
932, 4003546
835, 4003547
626, 4003548
60, 4003549
606, 4003550
959, 4003551
246, 4003552
854, 4003553
461, 4003554
944, 4003555
585, 4003556
192, 4003557
223, 4003558
832, 4003559
386, 4003560
507, 4003561
339, 4003562
991, 4003563
691, 4003564
689, 4003565
227, 4003566
699, 4003567
292, 4003568
424, 4003569
947, 4003570
25, 4003571
660, 4003572
264, 4003573
839, 4003574
584, 4003575
520, 4003576
32, 4003577
72, 4003578
333, 4003579
10, 4003580
260, 4003581
904, 4003582
113, 4003583
979, 4003584
505, 4003585
777, 4003586
964, 4003587
48, 4003588
743, 4003589
513, 4003590
166, 4003591
400, 4003592
6, 4003593
568, 4003594
279, 4003595
595, 4003596
1, 4003597
743, 4003598
862, 4003599
212, 4003600
589, 4003601
778, 4003602
495, 4003603
488, 4003604
730, 4003605
615, 4003606
275, 4003607
565, 4003608
240, 4003609
301, 4003610
427, 4003611
571, 4003612
611, 4003613
13, 4003614
85, 4003615
941, 4003616
768, 4003617
412, 4003618
757, 4003619
873, 4003620
549, 4003621
350, 4003622
220, 4003623
411, 4003624
124, 4003625
204, 4003626
141, 4003627
661, 4003628
463, 4003629
503, 4003630
594, 4003631
82, 4003632
69, 4003633
34, 4003634
299, 4003635
622, 4003636
603, 4003637
699, 4003638
246, 4003639
319, 4003640
212, 4003641
825, 4003642
247, 4003643
782, 4003644
569, 4003645
431, 4003646
90, 4003647
598, 4003648
409, 4003649
983, 4003650
795, 4003651
372, 4003652
138, 4003653
752, 4003654
909, 4003655
733, 4003656
773, 4003657
336, 4003658
647, 4003659
410, 4003660
533, 4003661
34, 4003662
800, 4003663
38, 4003664
888, 4003665
689, 4003666
651, 4003667
462, 4003668
724, 4003669
282, 4003670
83, 4003671
664, 4003672
459, 4003673
470, 4003674
768, 4003675
404, 4003676
383, 4003677
629, 4003678
312, 4003679
814, 4003680
294, 4003681
819, 4003682
63, 4003683
569, 4003684
486, 4003685
126, 4003686
22, 4003687
92, 4003688
97, 4003689
357, 4003690
175, 4003691
665, 4003692
458, 4003693
642, 4003694
718, 4003695
880, 4003696
118, 4003697
337, 4003698
921, 4003699
768, 4003700
220, 4003701
726, 4003702
393, 4003703
790, 4003704
37, 4003705
538, 4003706
855, 4003707
188, 4003708
347, 4003709
551, 4003710
951, 4003711
755, 4003712
429, 4003713
494, 4003714
351, 4003715
928, 4003716
601, 4003717
32, 4003718
368, 4003719
42, 4003720
889, 4003721
578, 4003722
124, 4003723
713, 4003724
174, 4003725
62, 4003726
134, 4003727
153, 4003728
495, 4003729
712, 4003730
436, 4003731
68, 4003732
715, 4003733
14, 4003734
104, 4003735
251, 4003736
658, 4003737
15, 4003738
914, 4003739
310, 4003740
991, 4003741
501, 4003742
479, 4003743
910, 4003744
264, 4003745
762, 4003746
821, 4003747
921, 4003748
892, 4003749
670, 4003750
396, 4003751
926, 4003752
267, 4003753
646, 4003754
917, 4003755
956, 4003756
114, 4003757
918, 4003758
438, 4003759
303, 4003760
60, 4003761
952, 4003762
556, 4003763
459, 4003764
225, 4003765
106, 4003766
192, 4003767
550, 4003768
234, 4003769
956, 4003770
466, 4003771
362, 4003772
154, 4003773
575, 4003774
864, 4003775
168, 4003776
966, 4003777
318, 4003778
119, 4003779
45, 4003780
221, 4003781
168, 4003782
800, 4003783
408, 4003784
273, 4003785
931, 4003786
380, 4003787
537, 4003788
220, 4003789
442, 4003790
608, 4003791
180, 4003792
243, 4003793
704, 4003794
490, 4003795
187, 4003796
894, 4003797
331, 4003798
857, 4003799
719, 4003800
573, 4003801
217, 4003802
32, 4003803
848, 4003804
348, 4003805
429, 4003806
299, 4003807
711, 4003808
23, 4003809
962, 4003810
471, 4003811
394, 4003812
990, 4003813
246, 4003814
30, 4003815
728, 4003816
778, 4003817
113, 4003818
784, 4003819
464, 4003820
341, 4003821
515, 4003822
443, 4003823
310, 4003824
38, 4003825
40, 4003826
596, 4003827
334, 4003828
66, 4003829
503, 4003830
315, 4003831
622, 4003832
747, 4003833
910, 4003834
466, 4003835
704, 4003836
661, 4003837
423, 4003838
302, 4003839
757, 4003840
571, 4003841
78, 4003842
268, 4003843
210, 4003844
534, 4003845
33, 4003846
421, 4003847
646, 4003848
494, 4003849
502, 4003850
290, 4003851
122, 4003852
366, 4003853
855, 4003854
15, 4003855
687, 4003856
612, 4003857
505, 4003858
84, 4003859
867, 4003860
253, 4003861
439, 4003862
150, 4003863
228, 4003864
613, 4003865
363, 4003866
674, 4003867
674, 4003868
997, 4003869
30, 4003870
571, 4003871
497, 4003872
411, 4003873
83, 4003874
390, 4003875
36, 4003876
269, 4003877
735, 4003878
765, 4003879
523, 4003880
413, 4003881
643, 4003882
760, 4003883
157, 4003884
30, 4003885
832, 4003886
789, 4003887
814, 4003888
244, 4003889
961, 4003890
728, 4003891
146, 4003892
272, 4003893
660, 4003894
43, 4003895
919, 4003896
594, 4003897
809, 4003898
175, 4003899
951, 4003900
44, 4003901
985, 4003902
553, 4003903
603, 4003904
397, 4003905
671, 4003906
213, 4003907
32, 4003908
915, 4003909
802, 4003910
30, 4003911
141, 4003912
399, 4003913
568, 4003914
492, 4003915
283, 4003916
341, 4003917
588, 4003918
595, 4003919
371, 4003920
824, 4003921
241, 4003922
746, 4003923
155, 4003924
738, 4003925
77, 4003926
185, 4003927
241, 4003928
841, 4003929
54, 4003930
937, 4003931
373, 4003932
803, 4003933
983, 4003934
935, 4003935
587, 4003936
803, 4003937
740, 4003938
458, 4003939
662, 4003940
872, 4003941
65, 4003942
400, 4003943
262, 4003944
988, 4003945
870, 4003946
148, 4003947
874, 4003948
211, 4003949
325, 4003950
522, 4003951
326, 4003952
255, 4003953
986, 4003954
745, 4003955
182, 4003956
786, 4003957
410, 4003958
535, 4003959
904, 4003960
436, 4003961
348, 4003962
768, 4003963
950, 4003964
968, 4003965
306, 4003966
584, 4003967
537, 4003968
771, 4003969
512, 4003970
779, 4003971
830, 4003972
564, 4003973
964, 4003974
171, 4003975
621, 4003976
917, 4003977
780, 4003978
258, 4003979
652, 4003980
352, 4003981
250, 4003982
67, 4003983
183, 4003984
834, 4003985
819, 4003986
717, 4003987
523, 4003988
578, 4003989
163, 4003990
119, 4003991
894, 4003992
18, 4003993
394, 4003994
677, 4003995
881, 4003996
989, 4003997
633, 4003998
201, 4003999
5, 4004000
